25491,
24147,
23417,
22850,
21125,
20926,
20109,
20109,
19637,
19169,
18694,
18442,
18067,
17935,
17702,
17524,
17423,
17270,
17270,
17245,
17218,
17218,
17154,
17154,
17100,
17100,
16987,
16987,
16987,
16987,
16755,
16755,
16755,
16755,
16755,
16755,
16755,
16755,
16755,
16755,
16755,
16755,
16755,
16518,
16518,
16518,
16518,
16518,
16518,
16170,
16170,
16170,
16012,
16012,
15996,
15547,
15547,
15366,
15366,
15366,
15366,
15366,
15366,
15366,
15366,
15366,
15366,
15366,
15366,
15366,
15366,
15366,
15366,
15366,
15366,
15366,
15366,
15366,
15366,
15366,
15366,
15366,
15235,
15235,
15235,
15235,
15235,
15235,
15185,
15185,
15185,
15185,
14666,
14666,
14666,
14666,
14577,
14577,
14577,
14577,
14577,
14577,
14577,
14577,
14577,
14577,
14577,
14577,
14577,
14577,
14577,
14577,
14577,
14577,
14577,
14577,
14577,
14577,
14577,
14577,
14577,
14577,
14577,
14577,
14577,
14577,
14577,
14577,
14577,
14577,
14372,
14372,
14372,
14372,
14372,
14372,
14372,
14372,
14372,
14372,
14372,
14372,
14372,
14372,
14372,
14372,
14372,
14372,
14372,
14372,
14372,
14372,
14372,
14372,
14307,
14307,
14307,
14307,
14307,
14307,
14307,
14307,
14307,
14242,
14242,
14242,
14242,
14172,
14172,
14172,
14172,
14172,
14172,
14172,
14172,
14172,
14172,
14138,
14138,
14138,
14138,
14138,
14138,
14138,
14138,
14138,
14138,
14138,
14138,
14123,
14123,
14123,
14117,
14117,
14117,
14117,
14117,
14117,
14117,
14043,
14043,
14043,
14043,
14043,
14043,
13938,
13938,
13938,
13938,
13884,
13884,
13884,
13884,
13826,
13826,
13826,
13826,
13826,
13826,
13826,
13826,
13826,
13826,
13826,
13826,
13826,
13826,
13826,
13826,
13826,
13826,
13826,
13826,
13826,
13826,
13826,
13826,
13826,
13826,
13826,
13826,
13826,
13826,
13826,
13826,
13826,
13826,
13826,
13826,
13826,
13826,
13826,
13826,
13826,
13826,
13826,
13826,
13765,
13765,
13765,
13765,
13765,
13765,
13765,
13765,
13738,
13738,
13738,
13738,
13725,
13725,
13725,
13725,
13725,
13725,
13725,
13725,
13725,
13712,
13712,
13712,
13712,
13712,
13712,
13539,
13539,
13539,
13539,
13539,
13539,
13539,
13539,
13539,
13539,
13486,
13486,
13486,
13486,
13486,
13486,
13486,
13486,
13486,
13486,
13486,
13486,
13486,
13486,
13486,
13352,
13352,
13352,
13352,
13352,
13352,
13208,
13208,
13208,
13208,
13208,
13208,
13208,
13208,
13208,
13208,
13208,
13208,
13208,
13208,
13208,
13208,
13188,
13188,
13188,
13188,
13188,
13188,
13188,
13188,
13188,
13188,
13188,
13188,
13188,
13188,
13188,
13188,
13188,
13188,
13188,
13188,
13188,
13188,
13188,
13188,
13188,
13188,
13188,
13188,
13188,
13188,
13188,
13188,
13188,
13188,
13188,
13188,
13188,
13188,
13188,
13188,
13188,
13188,
13188,
13188,
13188,
13188,
13188,
13188,
13188,
13188,
13188,
13188,
13188,
13188,
12987,
12987,
12987,
12987,
12987,
12987,
12987,
12987,
12987,
12987,
12987,
12987,
12987,
12987,
12987,
12987,
12987,
12931,
12931,
12931,
12931,
12931,
12931,
12931,
12931,
12931,
12931,
12931,
12931,
12931,
12931,
12931,
12931,
12931,
12931,
12931,
12931,
12931,
12931,
12931,
12931,
12931,
12931,
12931,
12931,
12931,
12931,
12931,
12931,
12931,
12931,
12931,
12931,
12931,
12931,
12931,
12931,
12931,
12931,
12931,
12911,
12896,
12896,
12896,
12896,
12896,
12896,
12896,
12896,
12896,
12891,
12891,
12891,
12891,
12891,
12891,
12891,
12891,
12891,
12891,
12891,
12891,
12891,
12891,
12891,
12891,
12891,
12891,
12891,
12891,
12891,
12891,
12891,
12891,
12891,
12891,
12891,
12891,
12891,
12860,
12860,
12812,
12812,
12812,
12812,
12812,
12812,
12812,
12812,
12812,
12812,
12812,
12812,
12812,
12812,
12812,
12812,
12812,
12812,
12812,
12812,
12812,
12812,
12812,
12812,
12812,
12812,
12812,
12812,
12812,
12812,
12812,
12812,
12812,
12812,
12812,
12812,
12812,
12812,
12812,
12812,
12812,
12812,
12812,
12812,
12812,
12812,
12812,
12812,
12812,
12812,
12812,
12812,
12812,
12812,
12812,
12812,
12812,
12812,
12812,
12812,
12812,
12812,
12812,
12812,
12812,
12812,
12812,
12812,
12812,
12812,
12812,
12812,
12812,
12812,
12812,
12812,
12812,
12812,
12812,
12812,
12812,
12812,
12773,
12773,
12773,
12773,
12773,
12773,
12773,
12773,
12773,
12773,
12773,
12773,
12773,
12773,
12773,
12773,
12773,
12773,
12773,
12773,
12773,
12773,
12773,
12773,
12773,
12773,
12773,
12773,
12773,
12773,
12773,
12773,
12773,
12773,
12773,
12773,
12773,
12773,
12773,
12773,
12773,
12773,
12773,
12773,
12773,
12773,
12773,
12773,
12773,
12773,
12773,
12773,
12721,
12721,
12721,
12721,
12721,
12721,
12721,
12721,
12721,
12721,
12721,
12721,
12721,
12721,
12721,
12721,
12721,
12721,
12721,
12721,
12721,
12721,
12721,
12721,
12721,
12721,
12721,
12721,
12721,
12721,
12721,
12721,
12576,
12576,
12576,
12576,
12576,
12576,
12576,
12576,
12576,
12576,
12576,
12576,
12576,
12576,
12576,
12576,
12576,
12576,
12576,
12576,
12576,
12576,
12576,
12536,
12536,
12536,
12536,
12536,
12536,
12536,
12536,
12536,
12536,
12536,
12536,
12536,
12536,
12536,
12349,
12349,
12349,
12349,
12349,
12349,
12349,
12349,
12349,
12349,
12249,
12249,
12249,
12249,
12249,
12249,
12249,
12249,
12249,
12249,
12249,
12249,
12249,
12249,
12249,
12249,
12249,
12249,
12249,
12249,
12249,
12249,
12249,
12249,
12249,
12249,
12249,
12249,
12249,
12249,
12249,
12249,
12249,
12249,
12249,
12249,
12249,
12249,
12249,
12249,
12249,
12249,
12249,
12249,
12249,
12249,
12249,
12249,
12249,
12249,
12249,
12249,
12249,
12249,
12249,
12249,
12249,
12249,
12249,
12249,
12249,
12249,
12249,
12003,
12003,
12003,
12003,
12003,
12003,
12003,
12003,
12003,
12003,
12003,
12003,
12003,
12003,
12003,
12003,
12003,
12003,
12003,
12003,
12003,
12003,
12003,
12003,
12003,
12003,
12003,
11827,
11827,
11827,
11827,
11827,
11827,
11827,
11827,
11827,
11827,
11827,
11568,
11568,
11568,
11534,
11534,
11534,
11534,
11534,
11534,
11534,
11534,
11534,
11534,
11534,
11534,
11534,
11534,
11534,
11534,
11534,
11534,
11534,
11534,
11534,
11534,
11534,
11534,
11534,
11534,
11534,
11534,
11534,
11534,
11534,
11534,
11534,
11534,
11534,
11534,
11534,
11534,
11534,
11534,
11534,
11534,
11534,
11534,
11534,
11534,
11534,
11534,
11534,
11534,
11534,
11534,
11534,
11534,
11534,
11534,
11534,
11534,
11534,
11534,
11534,
11534,
11534,
11534,
11534,
11534,
11534,
11534,
11534,
11534,
11534,
11534,
11534,
11534,
11507,
11507,
11507,
11507,
11507,
11507,
11507,
11507,
11507,
11507,
11507,
11507,
11507,
11507,
11507,
11507,
11507,
11507,
11507,
11507,
11507,
11507,
11507,
11507,
11507,
11507,
11507,
11492,
11492,
11492,
11492,
11492,
11492,
11492,
11492,
11492,
11492,
11492,
11492,
11492,
11492,
11492,
11492,
11492,
11492,
11492,
11492,
11492,
11492,
11492,
11492,
11492,
11492,
11492,
11492,
11492,
11492,
11492,
11492,
11492,
11492,
11492,
11492,
11492,
11492,
11492,
11492,
11492,
11492,
11492,
11492,
11492,
11492,
11492,
11492,
11492,
11492,
11492,
11492,
11492,
11492,
11492,
11492,
11492,
11492,
11492,
11492,
11492,
11492,
11492,
11492,
11492,
11492,
11492,
11492,
11492,
11492,
11492,
11492,
11492,
11492,
11492,
11492,
11492,
11492,
11492,
11492,
11492,
11492,
11492,
11492,
11492,
11492,
11492,
11492,
11492,
11492,
11492,
11492,
11492,
11492,
11492,
11492,
11492,
11492,
11492,
11492,
11492,
11492,
11342,
11342,
11342,
11342,
11342,
11342,
11342,
11342,
11342,
11342,
11342,
11342,
11342,
11342,
11342,
11342,
11342,
11342,
11342,
11342,
11342,
11342,
11342,
11342,
11342,
11342,
11205,
11205,
11205,
11205,
11205,
11205,
11205,
11205,
11205,
11205,
11205,
11205,
11205,
11205,
11205,
11205,
11205,
11205,
11205,
11205,
11205,
11205,
11205,
11205,
11205,
11205,
11205,
11205,
11205,
11205,
11205,
11205,
11205,
11205,
11205,
11205,
11205,
11205,
11205,
11205,
11205,
11205,
11205,
11205,
11205,
11205,
11205,
11205,
11205,
11205,
11205,
11205,
11205,
11205,
11205,
11205,
11205,
11205,
11205,
11205,
11205,
11205,
11205,
11205,
11205,
11205,
11205,
11205,
11205,
11205,
11205,
11205,
11205,
11205,
11205,
11205,
11205,
11205,
11205,
11205,
11205,
11205,
11205,
11205,
11205,
11205,
11205,
11205,
11205,
11205,
11205,
11205,
11205,
11205,
11205,
11205,
11205,
11205,
11205,
11205,
11205,
11205,
11205,
11205,
11205,
11205,
11205,
11205,
11205,
11205,
11205,
11205,
11205,
11205,
11205,
11205,
11205,
11205,
11205,
11205,
11205,
11205,
11205,
11205,
11205,
11205,
11205,
11205,
11205,
11205,
11205,
11205,
11205,
11205,
11205,
11205,
11205,
11205,
11205,
11205,
11205,
11205,
11205,
11205,
11205,
11205,
11205,
11205,
11205,
11205,
11205,
11205,
11205,
11205,
11205,
11205,
11205,
11205,
11205,
11205,
11205,
11205,
11205,
11205,
11205,
11205,
11205,
11205,
11205,
11205,
11205,
11205,
11205,
11205,
11205,
11205,
11205,
11205,
11205,
11205,
11205,
11205,
11205,
11205,
11205,
11205,
11205,
11205,
11205,
11205,
11205,
11205,
11205,
11205,
11205,
11205,
11205,
11205,
11205,
11205,
11205,
11205,
11205,
11205,
11205,
11205,
11205,
11205,
11205,
11205,
11205,
11177,
11177,
11177,
11177,
11177,
11177,
11177,
11177,
11177,
11177,
11177,
11177,
11177,
11177,
11177,
11177,
11177,
11177,
11177,
11177,
11177,
11177,
11177,
11177,
11136,
11136,
11136,
11136,
11136,
11136,
10964,
10964,
10964,
10964,
10964,
10964,
10964,
10964,
10964,
10964,
10964,
10964,
10964,
10964,
10964,
10964,
10964,
10964,
10964,
10964,
10964,
10964,
10964,
10964,
10964,
10964,
10964,
10964,
10964,
10964,
10964,
10964,
10964,
10964,
10964,
10964,
10964,
10964,
10964,
10964,
10964,
10923,
10923,
10923,
10923,
10923,
10923,
10923,
10923,
10923,
10923,
10923,
10923,
10923,
10923,
10923,
10923,
10923,
10923,
10923,
10923,
10923,
10923,
10923,
10923,
10923,
10923,
10923,
10923,
10923,
10923,
10923,
10923,
10923,
10923,
10923,
10923,
10923,
10923,
10923,
10923,
10923,
10923,
10923,
10923,
10923,
10923,
10923,
10923,
10923,
10923,
10923,
10923,
10923,
10923,
10923,
10923,
10923,
10923,
10923,
10923,
10923,
10923,
10923,
10923,
10923,
10923,
10923,
10923,
10923,
10923,
10923,
10923,
10923,
10923,
10923,
10923,
10923,
10923,
10923,
10923,
10923,
10923,
10923,
10923,
10923,
10923,
10923,
10923,
10923,
10923,
10923,
10923,
10923,
10923,
10923,
10923,
10923,
10923,
10923,
10923,
10923,
10923,
10923,
10923,
10923,
10923,
10923,
10923,
10923,
10923,
10923,
10923,
10923,
10923,
10923,
10923,
10923,
10923,
10923,
10923,
10923,
10923,
10923,
10923,
10923,
10923,
10923,
10923,
10923,
10923,
10923,
10923,
10922,
10922,
10922,
10922,
10922,
10922,
10922,
10922,
10922,
10922,
10922,
10922,
10922,
10922,
10922,
10922,
10922,
10922,
10922,
10922,
10922,
10922,
10922,
10922,
10922,
10922,
10922,
10922,
10922,
10922,
10922,
10922,
10922,
10922,
10922,
10922,
10922,
10922,
10922,
10922,
10922,
10922,
10922,
10922,
10922,
10922,
10922,
10922,
10922,
10922,
10922,
10922,
10922,
10922,
1,
